\Generated by Cardinal Operations

Maximize
   109.99 x_1 + 389.99 x_2 + 149.99 x_3 + 379.99 x_4 + 3.84 x_5 + 2.99 x_6 
   + 150 x_7 + 99.98999999999999 x_8 + 300 x_9 + 600 x_10 + 600 x_11 
   + 600 x_12 + 14.95 x_13 + 1700 x_14 + 999.99 x_15 + 11.95 x_16 
   + 400 x_17 + 11.99 x_18 + 700 x_19 
Subject To
 inventory_constraint: x_1 <= 41290
 x_2 <= 62440
 x_3 <= 75500
 x_4 <= 61990
 x_5 <= 276350
 x_6 <= 310170
 x_7 <= 156610
 x_8 <= 134570
 x_9 <= 48190
 x_10 <= 55320
 x_11 <= 6460
 x_12 <= 6660
 x_13 <= 232170
 x_14 <= 47280
 x_15 <= 41300
 x_16 <= 239750
 x_17 <= 20680
 x_18 <= 205570
 x_19 <= 68490
 demand_constraint: x_1 <= 8230
 x_2 <= 12474
 x_3 <= 15057
 x_4 <= 12380
 x_5 <= 49129
 x_6 <= 53317
 x_7 <= 31210
 x_8 <= 26784
 x_9 <= 9619
 x_10 <= 11057
 x_11 <= 1292
 x_12 <= 1332
 x_13 <= 44936
 x_14 <= 9452
 x_15 <= 8258
 x_16 <= 45977
 x_17 <= 4133
 x_18 <= 39520
 x_19 <= 13691
Generals
 x_1  x_2  x_3  x_4  x_5  x_6  x_7  x_8  x_9  x_10  x_11  x_12  x_13  x_14  
 x_15  x_16  x_17  x_18  x_19  
END

